NAME : local_4
TYPE : ATSP
DIMENSION : 6
EDGE_WEIGHT_TYPE : EXPLICIT
EDGE_WEIGHT_FORMAT : FULL_MATRIX
EDGE_WEIGHT_SECTION
0 310 925 10000000 788 10000000 
0 0 976 10000000 904 10000000 
0 1063 0 895 235 342 
0 10000000 895 0 1023 556 
0 904 235 1036 0 457 
0 10000000 10000000 10000000 10000000 0 
EOF